40674 38022 
39338 39122 
41791 36703 
40915 37862 
41997 36397 
42027 36145 
38651 39558 
39148 39232 
39073 39321 
39492 39019 
39732 38804 
40445 38202 
40710 38003 
40026 38731 
40189 38505 
40504 38173 
40527 38053 
39393 39078 
41988 36568 
41897 36630 
42243 36015 
42201 36055 
41835 36657 
40311 38300 
39719 38845 
39278 39135 
40034 38513 
39638 38922 
39216 39159 
41673 36900 
41769 36896 
41798 36678 
41510 37126 
41606 37122 
42002 36156 
41140 37515 
41049 37577 
41419 37188 
42257 35603 
38890 39326 
38468 39563 
39203 39200 
38869 39469 
41291 37454 
41364 37230 
41341 37321 
40323 38220 
40734 37909 
38455 39604 
38226 39638 
37787 39770 
37852 39729 
37977 39660 
41026 37653 
41351 37271 
40656 38042 
39803 38779 
37964 39701 
37551 39793 
37471 39840 
40560 38046 
39538 38978 
39551 38937 
40264 38335 
39650 38868 
